
#######################################################################
#
#                 Cambridge Crystallographic Data Centre
#                                CCDC
#
#######################################################################
#
# If this CIF has been generated from an entry in the Cambridge
# Structural Database, then it will include bibliographic, chemical,
# crystal, experimental, refinement or atomic coordinate data resulting
# from the CCDC's data processing and validation procedures.
#
#######################################################################

data_CSD_CIF_FAWCEN
_audit_creation_date 2012-09-04
_audit_creation_method CSD-ConQuest-V1
_database_code_CSD FAWCEN
_database_code_depnum_ccdc_archive 'CCDC 864309'
_chemical_formula_sum 'C48 H76 N24 O8 Zn6'
_chemical_formula_moiety
;
(C48 H60 N24 Zn6)n,8n(H2 O1)
;
_journal_coden_Cambridge 983
_journal_volume 116
_journal_year 2012
_journal_page_first 13307
_journal_name_full 'J.Phys.Chem.C '
loop_
_publ_author_name
"W.Morris"
"C.J.Stevens"
"R.E.Taylor"
"C.Dybowski"
"O.M.Yaghi"
"M.A.Garcia-Garibay"
_chemical_name_systematic
;
catena-[dodecakis(\m~2~-2-Methylimidazolyl)-hexa-zinc(ii) octahydrate]
;
_chemical_name_common
;
ZIF-8
;
_cell_volume   4784.861
_exptl_special_details
;
Study temperature given as 296 K and 100 K in the CIF

;
_diffrn_ambient_temperature 100
#These two values have been output from a single CSD field.
_refine_ls_R_factor_gt 0.0688
_refine_ls_wR_factor_gt 0.0688
_symmetry_cell_setting cubic
_symmetry_space_group_name_H-M 'I -4 3 m'
_symmetry_Int_Tables_number 217
loop_
_symmetry_equiv_pos_site_id
_symmetry_equiv_pos_as_xyz
1 x,y,z
2 -x,-y,z
3 -x,y,-z
4 x,-y,-z
5 z,x,y
6 z,-x,-y
7 -z,-x,y
8 -z,x,-y
9 y,z,x
10 -y,z,-x
11 y,-z,-x
12 -y,-z,x
13 y,x,z
14 -y,-x,z
15 y,-x,-z
16 -y,x,-z
17 x,z,y
18 -x,z,-y
19 -x,-z,y
20 x,-z,-y
21 z,y,x
22 z,-y,-x
23 -z,y,-x
24 -z,-y,x
25 1/2+x,1/2+y,1/2+z
26 1/2-x,1/2-y,1/2+z
27 1/2-x,1/2+y,1/2-z
28 1/2+x,1/2-y,1/2-z
29 1/2+z,1/2+x,1/2+y
30 1/2+z,1/2-x,1/2-y
31 1/2-z,1/2-x,1/2+y
32 1/2-z,1/2+x,1/2-y
33 1/2+y,1/2+z,1/2+x
34 1/2-y,1/2+z,1/2-x
35 1/2+y,1/2-z,1/2-x
36 1/2-y,1/2-z,1/2+x
37 1/2+y,1/2+x,1/2+z
38 1/2-y,1/2-x,1/2+z
39 1/2+y,1/2-x,1/2-z
40 1/2-y,1/2+x,1/2-z
41 1/2+x,1/2+z,1/2+y
42 1/2-x,1/2+z,1/2-y
43 1/2-x,1/2-z,1/2+y
44 1/2+x,1/2-z,1/2-y
45 1/2+z,1/2+y,1/2+x
46 1/2+z,1/2-y,1/2-x
47 1/2-z,1/2+y,1/2-x
48 1/2-z,1/2-y,1/2+x
_cell_length_a 16.8509(3)
_cell_length_b 16.8509(3)
_cell_length_c 16.8509(3)
_cell_angle_alpha 90
_cell_angle_beta 90
_cell_angle_gamma 90
_cell_formula_units_Z 2
loop_
_atom_type_symbol
_atom_type_radius_bond
C 0.68
H 0.23
N 0.68
O 0.68
Zn 1.22
loop_
_atom_site_label
_atom_site_type_symbol
_atom_site_fract_x
_atom_site_fract_y
_atom_site_fract_z
Zn1 Zn 0.50000 0.00000 -0.25000
C1 C 0.5053(3) 0.124(1) -0.1240(3)
N1 N 0.4643(3) 0.0883(4) -0.1827(4)
C2 C 0.3912(5) 0.1276(4) -0.1840(6)
H1 H 0.34940 0.11650 -0.21830
C3 C 0.5861(6) 0.0985(6) -0.0985(6)
O1 O 0.6920(11) 0.6920(11) 0.3080(11)
O2 O 0.816(3) 0.816(3) 0.184(3)
H2? H 0.60470 0.13280 -0.05700
H3? H 0.62180 0.10120 -0.14280
H4? H 0.58390 0.04490 -0.07910
Zn1R Zn 0.50000 0.25000 0.00000
Zn1P Zn 0.50000 -0.25000 0.00000
Zn1T Zn 0.75000 0.00000 -0.50000
Zn1V Zn 0.25000 0.00000 -0.50000
Zn1B Zn 0.50000 0.00000 0.25000
Zn1D Zn 0.75000 0.50000 0.00000
Zn1F Zn 0.25000 0.50000 0.00000
Zn1F* Zn 0.25000 -0.50000 0.00000
Zn1D* Zn 0.75000 -0.50000 0.00000
Zn1B* Zn 0.50000 0.00000 -0.75000
Zn1H Zn 1.00000 -0.25000 -0.50000
C1A C 0.4947(3) -0.124(1) -0.1240(3)
C1DA C 0.6240(3) -0.0053(10) -0.3760(3)
C1BA C 0.3760(3) 0.0053(10) -0.3760(3)
C1B C 0.4947(3) 0.124(1) 0.1240(3)
C1FA C 0.6240(3) 0.376(1) 0.0053(3)
C1GA C 0.3760(3) 0.376(1) -0.0053(3)
C1C C 0.5053(3) -0.124(1) 0.1240(3)
C1IA C 0.3760(3) -0.376(1) 0.0053(3)
C1HA C 0.6240(3) -0.376(1) -0.0053(3)
C1EA C 0.6240(3) 0.0053(10) -0.6240(3)
C1I C 0.8760(3) -0.124(1) -0.5053(3)
N1S N 0.4643(3) 0.1827(4) -0.0883(4)
N1A N 0.5357(3) -0.0883(4) -0.1827(4)
N1Q N 0.5357(3) -0.1827(4) -0.0883(4)
N1LA N 0.5883(3) 0.0357(4) -0.3173(4)
N1DA N 0.6827(3) 0.0357(4) -0.4117(4)
N1MA N 0.4117(3) -0.0357(4) -0.3173(4)
N1BA N 0.3173(3) -0.0357(4) -0.4117(4)
N1R N 0.5357(3) 0.1827(4) 0.0883(4)
N1B N 0.5357(3) 0.0883(4) 0.1827(4)
N1FA N 0.5883(3) 0.3173(4) -0.0357(4)
N1UA N 0.6827(3) 0.4117(4) -0.0357(4)
N1GA N 0.4117(3) 0.3173(4) 0.0357(4)
N1SA N 0.3173(3) 0.4117(4) 0.0357(4)
N1P N 0.4643(3) -0.1827(4) 0.0883(4)
N1C N 0.4643(3) -0.0883(4) 0.1827(4)
N1IA N 0.4117(3) -0.3173(4) -0.0357(4)
N1RA N 0.3173(3) -0.4117(4) -0.0357(4)
N1HA N 0.5883(3) -0.3173(4) 0.0357(4)
N1TA N 0.6827(3) -0.4117(4) 0.0357(4)
N1EA N 0.6827(3) -0.0357(4) -0.5883(4)
N1JA N 0.5883(3) -0.0357(4) -0.6827(4)
N1U N 0.8173(3) -0.0883(4) -0.4643(4)
N1I N 0.9117(3) -0.1827(4) -0.4643(4)
N1T N 0.8173(3) 0.0883(4) -0.5357(4)
N1CA N 0.3173(3) 0.0357(4) -0.5883(4)
N1V N 0.1827(3) 0.0883(4) -0.4643(4)
N1W N 0.1827(3) -0.0883(4) -0.5357(4)
N1KA N 0.4117(3) 0.0357(4) 0.3173(4)
N1JA* N 0.5883(3) -0.0357(4) 0.3173(4)
C2S C 0.3912(5) 0.1840(4) -0.1276(6)
C2A C 0.6088(5) -0.1276(4) -0.1840(6)
C2Q C 0.6088(5) -0.1840(4) -0.1276(6)
C2LA C 0.6276(5) 0.1088(4) -0.3160(6)
C2DA C 0.6840(5) 0.1088(4) -0.3724(6)
C2MA C 0.3724(5) -0.1088(4) -0.3160(6)
C2BA C 0.3160(5) -0.1088(4) -0.3724(6)
C2R C 0.6088(5) 0.1840(4) 0.1276(6)
C2B C 0.6088(5) 0.1276(4) 0.1840(6)
C2FA C 0.6276(5) 0.3160(4) -0.1088(6)
C2UA C 0.6840(5) 0.3724(4) -0.1088(6)
C2GA C 0.3724(5) 0.3160(4) 0.1088(6)
C2SA C 0.3160(5) 0.3724(4) 0.1088(6)
C2P C 0.3912(5) -0.1840(4) 0.1276(6)
C2C C 0.3912(5) -0.1276(4) 0.1840(6)
C2IA C 0.3724(5) -0.3160(4) -0.1088(6)
C2RA C 0.3160(5) -0.3724(4) -0.1088(6)
C2HA C 0.6276(5) -0.3160(4) 0.1088(6)
C2TA C 0.6840(5) -0.3724(4) 0.1088(6)
C2EA C 0.6840(5) -0.1088(4) -0.6276(6)
C2JA C 0.6276(5) -0.1088(4) -0.6840(6)
C2U C 0.8160(5) -0.1276(4) -0.3912(6)
C2I C 0.8724(5) -0.1840(4) -0.3912(6)
H1S H 0.34940 0.21830 -0.11650
H1A H 0.65060 -0.11650 -0.21830
H1Q H 0.65060 -0.21830 -0.11650
H1LA H 0.61650 0.15060 -0.28170
H1DA H 0.71830 0.15060 -0.38350
H1MA H 0.38350 -0.15060 -0.28170
H1BA H 0.28170 -0.15060 -0.38350
H1R H 0.65060 0.21830 0.11650
H1B H 0.65060 0.11650 0.21830
H1FA H 0.61650 0.28170 -0.15060
H1UA H 0.71830 0.38350 -0.15060
H1GA H 0.38350 0.28170 0.15060
H1SA H 0.28170 0.38350 0.15060
H1P H 0.34940 -0.21830 0.11650
H1C H 0.34940 -0.11650 0.21830
H1IA H 0.38350 -0.28170 -0.15060
H1RA H 0.28170 -0.38350 -0.15060
H1HA H 0.61650 -0.28170 0.15060
H1TA H 0.71830 -0.38350 0.15060
H1EA H 0.71830 -0.15060 -0.61650
H1JA H 0.61650 -0.15060 -0.71830
H1U H 0.78170 -0.11650 -0.34940
H1I H 0.88350 -0.21830 -0.34940
C3A C 0.4139(6) -0.0985(6) -0.0985(6)
C3DA C 0.5985(6) -0.0861(6) -0.4015(6)
C3BA C 0.4015(6) 0.0861(6) -0.4015(6)
C3B C 0.4139(6) 0.0985(6) 0.0985(6)
C3FA C 0.5985(6) 0.4015(6) 0.0861(6)
C3GA C 0.4015(6) 0.4015(6) -0.0861(6)
C3C C 0.5861(6) -0.0985(6) 0.0985(6)
C3IA C 0.4015(6) -0.4015(6) 0.0861(6)
C3HA C 0.5985(6) -0.4015(6) -0.0861(6)
C3EA C 0.5985(6) 0.0861(6) -0.5985(6)
C3I C 0.9015(6) -0.0985(6) -0.5861(6)
#END

data_CSD_CIF_FAWCEN01
_audit_creation_date 2012-09-04
_audit_creation_method CSD-ConQuest-V1
_database_code_CSD FAWCEN01
_database_code_depnum_ccdc_archive 'CCDC 864310'
_chemical_formula_sum 'C48 H76 N24 O8 Zn6'
_chemical_formula_moiety
;
(C48 H60 N24 Zn6)n,8n(H2 O1)
;
_journal_coden_Cambridge 983
_journal_volume 116
_journal_year 2012
_journal_page_first 13307
_journal_name_full 'J.Phys.Chem.C '
loop_
_publ_author_name
"W.Morris"
"C.J.Stevens"
"R.E.Taylor"
"C.Dybowski"
"O.M.Yaghi"
"M.A.Garcia-Garibay"
_chemical_name_systematic
;
catena-[dodecakis(\m~2~-2-Methylimidazolyl)-hexa-zinc(ii) octahydrate]
;
_chemical_name_common
;
ZIF-8
;
_cell_volume   4837.270
_exptl_special_details
;
Study temperature given as 296 K and 200 K in the CIF

;
_diffrn_ambient_temperature 200
#These two values have been output from a single CSD field.
_refine_ls_R_factor_gt 0.0513
_refine_ls_wR_factor_gt 0.0513
_symmetry_cell_setting cubic
_symmetry_space_group_name_H-M 'I -4 3 m'
_symmetry_Int_Tables_number 217
loop_
_symmetry_equiv_pos_site_id
_symmetry_equiv_pos_as_xyz
1 x,y,z
2 -x,-y,z
3 -x,y,-z
4 x,-y,-z
5 z,x,y
6 z,-x,-y
7 -z,-x,y
8 -z,x,-y
9 y,z,x
10 -y,z,-x
11 y,-z,-x
12 -y,-z,x
13 y,x,z
14 -y,-x,z
15 y,-x,-z
16 -y,x,-z
17 x,z,y
18 -x,z,-y
19 -x,-z,y
20 x,-z,-y
21 z,y,x
22 z,-y,-x
23 -z,y,-x
24 -z,-y,x
25 1/2+x,1/2+y,1/2+z
26 1/2-x,1/2-y,1/2+z
27 1/2-x,1/2+y,1/2-z
28 1/2+x,1/2-y,1/2-z
29 1/2+z,1/2+x,1/2+y
30 1/2+z,1/2-x,1/2-y
31 1/2-z,1/2-x,1/2+y
32 1/2-z,1/2+x,1/2-y
33 1/2+y,1/2+z,1/2+x
34 1/2-y,1/2+z,1/2-x
35 1/2+y,1/2-z,1/2-x
36 1/2-y,1/2-z,1/2+x
37 1/2+y,1/2+x,1/2+z
38 1/2-y,1/2-x,1/2+z
39 1/2+y,1/2-x,1/2-z
40 1/2-y,1/2+x,1/2-z
41 1/2+x,1/2+z,1/2+y
42 1/2-x,1/2+z,1/2-y
43 1/2-x,1/2-z,1/2+y
44 1/2+x,1/2-z,1/2-y
45 1/2+z,1/2+y,1/2+x
46 1/2+z,1/2-y,1/2-x
47 1/2-z,1/2+y,1/2-x
48 1/2-z,1/2-y,1/2+x
_cell_length_a 16.9122(9)
_cell_length_b 16.9122(9)
_cell_length_c 16.9122(9)
_cell_angle_alpha 90
_cell_angle_beta 90
_cell_angle_gamma 90
_cell_formula_units_Z 2
loop_
_atom_type_symbol
_atom_type_radius_bond
C 0.68
H 0.23
N 0.68
O 0.68
Zn 1.22
loop_
_atom_site_label
_atom_site_type_symbol
_atom_site_fract_x
_atom_site_fract_y
_atom_site_fract_z
Zn1 Zn 0.50000 1.00000 -0.25000
N1 N 0.5332(2) 1.0894(3) -0.1822(2)
C1 C 0.6048(4) 1.1295(3) -0.1853(4)
H1 H 0.64590 1.11920 -0.22030
C2 C 0.4929(2) 1.1235(6) -0.1235(2)
C3 C 0.4132(4) 1.0971(5) -0.0971(4)
O1 O 0.6896(10) 0.3104(10) 0.3104(10)
O2 O 0.844(4) 0.156(4) 0.156(4)
H2? H 0.39530 1.13030 -0.05470
H3? H 0.41620 1.04330 -0.07900
H4? H 0.37680 1.10040 -0.14040
Zn1R Zn 0.50000 1.25000 0.00000
Zn1P Zn 0.50000 0.75000 0.00000
Zn1T Zn 0.75000 1.00000 -0.50000
Zn1V Zn 0.25000 1.00000 -0.50000
Zn1B Zn 0.50000 1.00000 0.25000
Zn1D Zn 0.75000 1.50000 0.00000
Zn1F Zn 0.25000 1.50000 0.00000
Zn1F* Zn 0.25000 0.50000 0.00000
Zn1D* Zn 0.75000 0.50000 0.00000
Zn1B* Zn 0.50000 1.00000 -0.75000
Zn1H Zn 1.00000 0.75000 -0.50000
N1S N 0.5332(2) 1.1822(3) -0.0894(2)
N1A N 0.4668(2) 0.9106(3) -0.1822(2)
N1Q N 0.4668(2) 0.8178(3) -0.0894(2)
N1LA N 0.5894(2) 0.9668(3) -0.3178(2)
N1DA N 0.6822(2) 0.9668(3) -0.4106(2)
N1MA N 0.4106(2) 1.0332(3) -0.3178(2)
N1BA N 0.3178(2) 1.0332(3) -0.4106(2)
N1R N 0.4668(2) 1.1822(3) 0.0894(2)
N1B N 0.4668(2) 1.0894(3) 0.1822(2)
N1FA N 0.5894(2) 1.3178(3) 0.0332(2)
N1UA N 0.6822(2) 1.4106(3) 0.0332(2)
N1GA N 0.4106(2) 1.3178(3) -0.0332(2)
N1SA N 0.3178(2) 1.4106(3) -0.0332(2)
N1P N 0.5332(2) 0.8178(3) 0.0894(2)
N1C N 0.5332(2) 0.9106(3) 0.1822(2)
N1IA N 0.4106(2) 0.6822(3) 0.0332(2)
N1RA N 0.3178(2) 0.5894(3) 0.0332(2)
N1HA N 0.5894(2) 0.6822(3) -0.0332(2)
N1TA N 0.6822(2) 0.5894(3) -0.0332(2)
N1EA N 0.6822(2) 1.0332(3) -0.5894(2)
N1JA N 0.5894(2) 1.0332(3) -0.6822(2)
N1U N 0.8178(2) 0.9106(3) -0.5332(2)
N1I N 0.9106(2) 0.8178(3) -0.5332(2)
N1T N 0.8178(2) 1.0894(3) -0.4668(2)
N1CA N 0.3178(2) 0.9668(3) -0.5894(2)
N1V N 0.1822(2) 1.0894(3) -0.5332(2)
N1W N 0.1822(2) 0.9106(3) -0.4668(2)
N1KA N 0.4106(2) 0.9668(3) 0.3178(2)
N1JA* N 0.5894(2) 1.0332(3) 0.3178(2)
C1S C 0.6048(4) 1.1853(3) -0.1295(4)
C1A C 0.3952(4) 0.8705(3) -0.1853(4)
C1Q C 0.3952(4) 0.8147(3) -0.1295(4)
C1LA C 0.6295(4) 0.8952(3) -0.3147(4)
C1DA C 0.6853(4) 0.8952(3) -0.3705(4)
C1MA C 0.3705(4) 1.1048(3) -0.3147(4)
C1BA C 0.3147(4) 1.1048(3) -0.3705(4)
C1R C 0.3952(4) 1.1853(3) 0.1295(4)
C1B C 0.3952(4) 1.1295(3) 0.1853(4)
C1FA C 0.6295(4) 1.3147(3) 0.1048(4)
C1UA C 0.6853(4) 1.3705(3) 0.1048(4)
C1GA C 0.3705(4) 1.3147(3) -0.1048(4)
C1SA C 0.3147(4) 1.3705(3) -0.1048(4)
C1P C 0.6048(4) 0.8147(3) 0.1295(4)
C1C C 0.6048(4) 0.8705(3) 0.1853(4)
C1IA C 0.3705(4) 0.6853(3) 0.1048(4)
C1RA C 0.3147(4) 0.6295(3) 0.1048(4)
C1HA C 0.6295(4) 0.6853(3) -0.1048(4)
C1TA C 0.6853(4) 0.6295(3) -0.1048(4)
C1EA C 0.6853(4) 1.1048(3) -0.6295(4)
C1JA C 0.6295(4) 1.1048(3) -0.6853(4)
C1U C 0.8147(4) 0.8705(3) -0.6048(4)
C1I C 0.8705(4) 0.8147(3) -0.6048(4)
H1S H 0.64590 1.22030 -0.11920
H1A H 0.35410 0.88080 -0.22030
H1Q H 0.35410 0.77970 -0.11920
H1LA H 0.61920 0.85410 -0.27970
H1DA H 0.72030 0.85410 -0.38080
H1MA H 0.38080 1.14590 -0.27970
H1BA H 0.27970 1.14590 -0.38080
H1R H 0.35410 1.22030 0.11920
H1B H 0.35410 1.11920 0.22030
H1FA H 0.61920 1.27970 0.14590
H1UA H 0.72030 1.38080 0.14590
H1GA H 0.38080 1.27970 -0.14590
H1SA H 0.27970 1.38080 -0.14590
H1P H 0.64590 0.77970 0.11920
H1C H 0.64590 0.88080 0.22030
H1IA H 0.38080 0.72030 0.14590
H1RA H 0.27970 0.61920 0.14590
H1HA H 0.61920 0.72030 -0.14590
H1TA H 0.72030 0.61920 -0.14590
H1EA H 0.72030 1.14590 -0.61920
H1JA H 0.61920 1.14590 -0.72030
H1U H 0.77970 0.88080 -0.64590
H1I H 0.88080 0.77970 -0.64590
C2A C 0.5071(2) 0.8765(6) -0.1235(2)
C2DA C 0.6235(2) 1.0071(6) -0.3765(2)
C2BA C 0.3765(2) 0.9929(6) -0.3765(2)
C2B C 0.5071(2) 1.1235(6) 0.1235(2)
C2FA C 0.6235(2) 1.3765(6) -0.0071(2)
C2GA C 0.3765(2) 1.3765(6) 0.0071(2)
C2C C 0.4929(2) 0.8765(6) 0.1235(2)
C2IA C 0.3765(2) 0.6235(6) -0.0071(2)
C2HA C 0.6235(2) 0.6235(6) 0.0071(2)
C2EA C 0.6235(2) 0.9929(6) -0.6235(2)
C2I C 0.8765(2) 0.8765(6) -0.4929(2)
C3A C 0.5868(4) 0.9029(5) -0.0971(4)
C3DA C 0.5971(4) 1.0868(5) -0.4029(4)
C3BA C 0.4029(4) 0.9132(5) -0.4029(4)
C3B C 0.5868(4) 1.0971(5) 0.0971(4)
C3FA C 0.5971(4) 1.4029(5) -0.0868(4)
C3GA C 0.4029(4) 1.4029(5) 0.0868(4)
C3C C 0.4132(4) 0.9029(5) 0.0971(4)
C3IA C 0.4029(4) 0.5971(5) -0.0868(4)
C3HA C 0.5971(4) 0.5971(5) 0.0868(4)
C3EA C 0.5971(4) 0.9132(5) -0.5971(4)
C3I C 0.9029(4) 0.9029(5) -0.4132(4)
#END

data_CSD_CIF_FAWCEN02
_audit_creation_date 2012-09-04
_audit_creation_method CSD-ConQuest-V1
_database_code_CSD FAWCEN02
_database_code_depnum_ccdc_archive 'CCDC 864311'
_chemical_formula_sum 'C48 H76 N24 O8 Zn6'
_chemical_formula_moiety
;
(C48 H60 N24 Zn6)n,8n(H2 O1)
;
_journal_coden_Cambridge 983
_journal_volume 116
_journal_year 2012
_journal_page_first 13307
_journal_name_full 'J.Phys.Chem.C '
loop_
_publ_author_name
"W.Morris"
"C.J.Stevens"
"R.E.Taylor"
"C.Dybowski"
"O.M.Yaghi"
"M.A.Garcia-Garibay"
_chemical_name_systematic
;
catena-[dodecakis(\m~2~-2-Methylimidazolyl)-hexa-zinc(ii) octahydrate]
;
_chemical_name_common
;
ZIF-8
;
_cell_volume   4906.933
_exptl_special_details
;
Study temperature given as 296 K and 240 K in the CIF

;
_diffrn_ambient_temperature 240
#These two values have been output from a single CSD field.
_refine_ls_R_factor_gt 0.051
_refine_ls_wR_factor_gt 0.051
_symmetry_cell_setting cubic
_symmetry_space_group_name_H-M 'I -4 3 m'
_symmetry_Int_Tables_number 217
loop_
_symmetry_equiv_pos_site_id
_symmetry_equiv_pos_as_xyz
1 x,y,z
2 -x,-y,z
3 -x,y,-z
4 x,-y,-z
5 z,x,y
6 z,-x,-y
7 -z,-x,y
8 -z,x,-y
9 y,z,x
10 -y,z,-x
11 y,-z,-x
12 -y,-z,x
13 y,x,z
14 -y,-x,z
15 y,-x,-z
16 -y,x,-z
17 x,z,y
18 -x,z,-y
19 -x,-z,y
20 x,-z,-y
21 z,y,x
22 z,-y,-x
23 -z,y,-x
24 -z,-y,x
25 1/2+x,1/2+y,1/2+z
26 1/2-x,1/2-y,1/2+z
27 1/2-x,1/2+y,1/2-z
28 1/2+x,1/2-y,1/2-z
29 1/2+z,1/2+x,1/2+y
30 1/2+z,1/2-x,1/2-y
31 1/2-z,1/2-x,1/2+y
32 1/2-z,1/2+x,1/2-y
33 1/2+y,1/2+z,1/2+x
34 1/2-y,1/2+z,1/2-x
35 1/2+y,1/2-z,1/2-x
36 1/2-y,1/2-z,1/2+x
37 1/2+y,1/2+x,1/2+z
38 1/2-y,1/2-x,1/2+z
39 1/2+y,1/2-x,1/2-z
40 1/2-y,1/2+x,1/2-z
41 1/2+x,1/2+z,1/2+y
42 1/2-x,1/2+z,1/2-y
43 1/2-x,1/2-z,1/2+y
44 1/2+x,1/2-z,1/2-y
45 1/2+z,1/2+y,1/2+x
46 1/2+z,1/2-y,1/2-x
47 1/2-z,1/2+y,1/2-x
48 1/2-z,1/2-y,1/2+x
_cell_length_a 16.993(2)
_cell_length_b 16.993(2)
_cell_length_c 16.993(2)
_cell_angle_alpha 90
_cell_angle_beta 90
_cell_angle_gamma 90
_cell_formula_units_Z 2
loop_
_atom_type_symbol
_atom_type_radius_bond
C 0.68
H 0.23
N 0.68
O 0.68
Zn 1.22
loop_
_atom_site_label
_atom_site_type_symbol
_atom_site_fract_x
_atom_site_fract_y
_atom_site_fract_z
Zn1 Zn 0.50000 -0.25000 0.00000
N1 N 0.5327(4) -0.1831(4) -0.0895(4)
C1 C 0.4932(3) -0.1234(3) -0.1234(10)
C2 C 0.4144(6) -0.0954(6) -0.0954(7)
C3 C 0.6014(5) -0.1865(6) -0.1304(5)
H1 H 0.64200 -0.22200 -0.12110
O1 O 0.6883(16) 0.3117(16) 0.6883(16)
O2 O 0.835(2) 0.165(2) 0.835(2)
H2? H 0.42060 -0.06740 -0.04670
H3? H 0.38040 -0.13980 -0.08740
H4? H 0.39180 -0.06100 -0.13410
Zn1P Zn 0.50000 0.00000 -0.25000
Zn1Q Zn 0.50000 0.00000 0.25000
Zn1M Zn 0.25000 -0.50000 0.00000
Zn1L Zn 0.75000 -0.50000 0.00000
Zn1A Zn 0.50000 0.25000 0.00000
Zn1I Zn 0.25000 0.00000 -0.50000
Zn1H Zn 0.75000 0.00000 -0.50000
Zn1H* Zn 0.75000 0.00000 0.50000
Zn1I* Zn 0.25000 0.00000 0.50000
Zn1A* Zn 0.50000 -0.75000 0.00000
Zn1E Zn 0.00000 -0.50000 0.25000
N1P N 0.5327(4) -0.0895(4) -0.1831(4)
N1B N 0.4673(4) -0.1831(4) 0.0895(4)
N1Q N 0.4673(4) -0.0895(4) 0.1831(4)
N1SA N 0.4105(4) -0.3169(4) -0.0327(4)
N1HA N 0.3169(4) -0.4105(4) -0.0327(4)
N1UA N 0.5895(4) -0.3169(4) 0.0327(4)
N1IA N 0.6831(4) -0.4105(4) 0.0327(4)
N1R N 0.4673(4) 0.0895(4) -0.1831(4)
N1A N 0.4673(4) 0.1831(4) -0.0895(4)
N1CA N 0.4105(4) -0.0327(4) -0.3169(4)
N1LA N 0.3169(4) -0.0327(4) -0.4105(4)
N1EA N 0.5895(4) 0.0327(4) -0.3169(4)
N1MA N 0.6831(4) 0.0327(4) -0.4105(4)
N1S N 0.5327(4) 0.0895(4) 0.1831(4)
N1C N 0.5327(4) 0.1831(4) 0.0895(4)
N1DA N 0.5895(4) -0.0327(4) 0.3169(4)
N1KA N 0.6831(4) -0.0327(4) 0.4105(4)
N1BA N 0.4105(4) 0.0327(4) 0.3169(4)
N1JA N 0.3169(4) 0.0327(4) 0.4105(4)
N1FA N 0.3169(4) -0.5895(4) 0.0327(4)
N1RA N 0.4105(4) -0.6831(4) 0.0327(4)
N1O N 0.1831(4) -0.4673(4) 0.0895(4)
N1G N 0.0895(4) -0.4673(4) 0.1831(4)
N1M N 0.1831(4) -0.5327(4) -0.0895(4)
N1GA N 0.6831(4) -0.5895(4) -0.0327(4)
N1L N 0.8169(4) -0.4673(4) -0.0895(4)
N1N N 0.8169(4) -0.5327(4) 0.0895(4)
N1TA N 0.5895(4) 0.3169(4) -0.0327(4)
N1RA* N 0.4105(4) 0.3169(4) 0.0327(4)
C1B C 0.5068(3) -0.1234(3) 0.1234(10)
C1HA C 0.3766(3) -0.3766(3) 0.0068(10)
C1IA C 0.6234(3) -0.3766(3) -0.0068(10)
C1A C 0.5068(3) 0.1234(3) -0.1234(10)
C1CA C 0.3766(3) 0.0068(3) -0.3766(10)
C1EA C 0.6234(3) -0.0068(3) -0.3766(10)
C1C C 0.4932(3) 0.1234(3) 0.1234(10)
C1DA C 0.6234(3) 0.0068(3) 0.3766(10)
C1BA C 0.3766(3) -0.0068(3) 0.3766(10)
C1FA C 0.3766(3) -0.6234(3) -0.0068(10)
C1G C 0.1234(3) -0.5068(3) 0.1234(10)
C2B C 0.5856(6) -0.0954(6) 0.0954(7)
C2HA C 0.4046(6) -0.4046(6) 0.0856(7)
C2IA C 0.5954(6) -0.4046(6) -0.0856(7)
C2A C 0.5856(6) 0.0954(6) -0.0954(7)
C2CA C 0.4046(6) 0.0856(6) -0.4046(7)
C2EA C 0.5954(6) -0.0856(6) -0.4046(7)
C2C C 0.4144(6) 0.0954(6) 0.0954(7)
C2DA C 0.5954(6) 0.0856(6) 0.4046(7)
C2BA C 0.4046(6) -0.0856(6) 0.4046(7)
C2FA C 0.4046(6) -0.5954(6) -0.0856(7)
C2G C 0.0954(6) -0.5856(6) 0.0954(7)
C3P C 0.6014(5) -0.1304(6) -0.1865(5)
C3B C 0.3986(5) -0.1865(6) 0.1304(5)
C3Q C 0.3986(5) -0.1304(6) 0.1865(5)
C3SA C 0.3696(5) -0.3135(6) -0.1014(5)
C3HA C 0.3135(5) -0.3696(6) -0.1014(5)
C3UA C 0.6304(5) -0.3135(6) 0.1014(5)
C3IA C 0.6865(5) -0.3696(6) 0.1014(5)
C3R C 0.3986(5) 0.1304(6) -0.1865(5)
C3A C 0.3986(5) 0.1865(6) -0.1304(5)
C3CA C 0.3696(5) -0.1014(6) -0.3135(5)
C3LA C 0.3135(5) -0.1014(6) -0.3696(5)
C3EA C 0.6304(5) 0.1014(6) -0.3135(5)
C3MA C 0.6865(5) 0.1014(6) -0.3696(5)
C3S C 0.6014(5) 0.1304(6) 0.1865(5)
C3C C 0.6014(5) 0.1865(6) 0.1304(5)
C3DA C 0.6304(5) -0.1014(6) 0.3135(5)
C3KA C 0.6865(5) -0.1014(6) 0.3696(5)
C3BA C 0.3696(5) 0.1014(6) 0.3135(5)
C3JA C 0.3135(5) 0.1014(6) 0.3696(5)
C3FA C 0.3135(5) -0.6304(6) 0.1014(5)
C3RA C 0.3696(5) -0.6865(6) 0.1014(5)
C3O C 0.1865(5) -0.3986(6) 0.1304(5)
C3G C 0.1304(5) -0.3986(6) 0.1865(5)
H1P H 0.64200 -0.12110 -0.22200
H1B H 0.35800 -0.22200 0.12110
H1Q H 0.35800 -0.12110 0.22200
H1SA H 0.37890 -0.27800 -0.14200
H1HA H 0.27800 -0.37890 -0.14200
H1UA H 0.62110 -0.27800 0.14200
H1IA H 0.72200 -0.37890 0.14200
H1R H 0.35800 0.12110 -0.22200
H1A H 0.35800 0.22200 -0.12110
H1CA H 0.37890 -0.14200 -0.27800
H1LA H 0.27800 -0.14200 -0.37890
H1EA H 0.62110 0.14200 -0.27800
H1MA H 0.72200 0.14200 -0.37890
H1S H 0.64200 0.12110 0.22200
H1C H 0.64200 0.22200 0.12110
H1DA H 0.62110 -0.14200 0.27800
H1KA H 0.72200 -0.14200 0.37890
H1BA H 0.37890 0.14200 0.27800
H1JA H 0.27800 0.14200 0.37890
H1FA H 0.27800 -0.62110 0.14200
H1RA H 0.37890 -0.72200 0.14200
H1O H 0.22200 -0.35800 0.12110
H1G H 0.12110 -0.35800 0.22200
#END

data_CSD_CIF_FAWCEN03
_audit_creation_date 2012-09-04
_audit_creation_method CSD-ConQuest-V1
_database_code_CSD FAWCEN03
_database_code_depnum_ccdc_archive 'CCDC 864312'
_chemical_formula_sum 'C8 H10 N4 Zn1'
_chemical_formula_moiety
;
(C8 H10 N4 Zn1)n
;
_journal_coden_Cambridge 983
_journal_volume 116
_journal_year 2012
_journal_page_first 13307
_journal_name_full 'J.Phys.Chem.C '
loop_
_publ_author_name
"W.Morris"
"C.J.Stevens"
"R.E.Taylor"
"C.Dybowski"
"O.M.Yaghi"
"M.A.Garcia-Garibay"
_chemical_name_systematic
;
catena-[bis(\m~2~-2-Methylimidazolyl)-zinc(ii) unknown solvate]
;
_chemical_name_common
;
ZIF-8
;
_cell_volume   4921.241
_exptl_crystal_density_diffrn 0.921
_diffrn_ambient_temperature 298
_refine_special_details
;
Solvent water, modelled in the structure from diffraction data at low 
temperature, is not present in this structural model from a room temperature 
data set. We calculate 29% void space in the structure.
;
#These two values have been output from a single CSD field.
_refine_ls_R_factor_gt 0.0477
_refine_ls_wR_factor_gt 0.0477
_symmetry_cell_setting cubic
_symmetry_space_group_name_H-M 'I -4 3 m'
_symmetry_Int_Tables_number 217
loop_
_symmetry_equiv_pos_site_id
_symmetry_equiv_pos_as_xyz
1 x,y,z
2 -x,-y,z
3 -x,y,-z
4 x,-y,-z
5 z,x,y
6 z,-x,-y
7 -z,-x,y
8 -z,x,-y
9 y,z,x
10 -y,z,-x
11 y,-z,-x
12 -y,-z,x
13 y,x,z
14 -y,-x,z
15 y,-x,-z
16 -y,x,-z
17 x,z,y
18 -x,z,-y
19 -x,-z,y
20 x,-z,-y
21 z,y,x
22 z,-y,-x
23 -z,y,-x
24 -z,-y,x
25 1/2+x,1/2+y,1/2+z
26 1/2-x,1/2-y,1/2+z
27 1/2-x,1/2+y,1/2-z
28 1/2+x,1/2-y,1/2-z
29 1/2+z,1/2+x,1/2+y
30 1/2+z,1/2-x,1/2-y
31 1/2-z,1/2-x,1/2+y
32 1/2-z,1/2+x,1/2-y
33 1/2+y,1/2+z,1/2+x
34 1/2-y,1/2+z,1/2-x
35 1/2+y,1/2-z,1/2-x
36 1/2-y,1/2-z,1/2+x
37 1/2+y,1/2+x,1/2+z
38 1/2-y,1/2-x,1/2+z
39 1/2+y,1/2-x,1/2-z
40 1/2-y,1/2+x,1/2-z
41 1/2+x,1/2+z,1/2+y
42 1/2-x,1/2+z,1/2-y
43 1/2-x,1/2-z,1/2+y
44 1/2+x,1/2-z,1/2-y
45 1/2+z,1/2+y,1/2+x
46 1/2+z,1/2-y,1/2-x
47 1/2-z,1/2+y,1/2-x
48 1/2-z,1/2-y,1/2+x
_cell_length_a 17.0095(8)
_cell_length_b 17.0095(8)
_cell_length_c 17.0095(8)
_cell_angle_alpha 90
_cell_angle_beta 90
_cell_angle_gamma 90
_cell_formula_units_Z 12
loop_
_atom_type_symbol
_atom_type_radius_bond
C 0.68
H 0.23
N 0.68
Zn 1.22
loop_
_atom_site_label
_atom_site_type_symbol
_atom_site_fract_x
_atom_site_fract_y
_atom_site_fract_z
Zn1 Zn 0.00000 0.50000 0.25000
N1 N 0.0309(3) 0.5904(3) 0.3173(3)
C1 C -0.0086(2) 0.6233(7) 0.3767(2)
C2 C 0.1000(5) 0.6322(4) 0.3127(5)
H1 H 0.14020 0.62330 0.27670
C3 C -0.0872(5) 0.5949(6) 0.4051(5)
H2? H -0.10100 0.62220 0.45250
H3? H -0.08450 0.53950 0.41540
H4? H -0.12620 0.60480 0.36560
Zn1R Zn 0.00000 0.75000 0.50000
Zn1P Zn 0.00000 0.25000 0.50000
N1S N 0.0309(3) 0.6827(3) 0.4096(3)
N1A N -0.0309(3) 0.4096(3) 0.3173(3)
N1Q N -0.0309(3) 0.3173(3) 0.4096(3)
N1LA N 0.0904(3) 0.4691(3) 0.1827(3)
N1MA N -0.0904(3) 0.5309(3) 0.1827(3)
C1A C 0.0086(2) 0.3767(7) 0.3767(2)
C2S C 0.1000(5) 0.6873(4) 0.3678(5)
C2A C -0.1000(5) 0.3678(4) 0.3127(5)
C2Q C -0.1000(5) 0.3127(4) 0.3678(5)
H1S H 0.14020 0.72330 0.37670
H1A H -0.14020 0.37670 0.27670
H1Q H -0.14020 0.27670 0.37670
C3A C 0.0872(5) 0.4051(6) 0.4051(5)
#END

data_CSD_CIF_FAWCEN04
_audit_creation_date 2015-10-02
_audit_creation_method CSD-ConQuest-V1
_database_code_CSD FAWCEN04
_database_code_depnum_ccdc_archive 'CCDC 1429243'
_chemical_formula_sum 'C8 H10 N4 Zn1'
_chemical_formula_moiety
;
(C8 H10 N4 Zn1)n
;
_journal_coden_Cambridge 4
_journal_volume 137
_journal_year 2015
_journal_page_first 12304
_journal_name_full 'J.Am.Chem.Soc. '
loop_
_publ_author_name
"Hyuk Taek Kwon"
"Hae-Kwon Jeong"
"A.S.Lee"
"He Seong An"
"Jong Suk Lee"
_chemical_name_systematic
;
catena-[bis(\m-2-methyl-imidazolato)-zinc unknown solvate]
;
_chemical_name_common
;
ZIF-8
;
_cell_volume   4810.975
_exptl_crystal_colour 'colorless'
_exptl_crystal_density_diffrn 1.548
_exptl_crystal_description 'plate'
_diffrn_ambient_temperature 110
_refine_special_details
;
The SQUEEZE/PLATON program has been used to model some disorder.

;
#These two values have been output from a single CSD field.
_refine_ls_R_factor_gt 0.0219
_refine_ls_wR_factor_gt 0.0219
_symmetry_cell_setting cubic
_symmetry_space_group_name_H-M 'I -4 3 m'
_symmetry_Int_Tables_number 217
loop_
_symmetry_equiv_pos_site_id
_symmetry_equiv_pos_as_xyz
1 x,y,z
2 -x,-y,z
3 -x,y,-z
4 x,-y,-z
5 z,x,y
6 z,-x,-y
7 -z,-x,y
8 -z,x,-y
9 y,z,x
10 -y,z,-x
11 y,-z,-x
12 -y,-z,x
13 y,x,z
14 -y,-x,z
15 y,-x,-z
16 -y,x,-z
17 x,z,y
18 -x,z,-y
19 -x,-z,y
20 x,-z,-y
21 z,y,x
22 z,-y,-x
23 -z,y,-x
24 -z,-y,x
25 1/2+x,1/2+y,1/2+z
26 1/2-x,1/2-y,1/2+z
27 1/2-x,1/2+y,1/2-z
28 1/2+x,1/2-y,1/2-z
29 1/2+z,1/2+x,1/2+y
30 1/2+z,1/2-x,1/2-y
31 1/2-z,1/2-x,1/2+y
32 1/2-z,1/2+x,1/2-y
33 1/2+y,1/2+z,1/2+x
34 1/2-y,1/2+z,1/2-x
35 1/2+y,1/2-z,1/2-x
36 1/2-y,1/2-z,1/2+x
37 1/2+y,1/2+x,1/2+z
38 1/2-y,1/2-x,1/2+z
39 1/2+y,1/2-x,1/2-z
40 1/2-y,1/2+x,1/2-z
41 1/2+x,1/2+z,1/2+y
42 1/2-x,1/2+z,1/2-y
43 1/2-x,1/2-z,1/2+y
44 1/2+x,1/2-z,1/2-y
45 1/2+z,1/2+y,1/2+x
46 1/2+z,1/2-y,1/2-x
47 1/2-z,1/2+y,1/2-x
48 1/2-z,1/2-y,1/2+x
_cell_length_a 16.8815(5)
_cell_length_b 16.8815(5)
_cell_length_c 16.8815(5)
_cell_angle_alpha 90
_cell_angle_beta 90
_cell_angle_gamma 90
_cell_formula_units_Z 16
loop_
_atom_type_symbol
_atom_type_radius_bond
C 0.68
H 0.23
N 0.68
Zn 1.22
loop_
_atom_site_label
_atom_site_type_symbol
_atom_site_fract_x
_atom_site_fract_y
_atom_site_fract_z
Zn1 Zn 0.50000 0.25000 1.00000
C1 C 0.5047(3) 0.12374(8) 0.87626(8)
N1 N 0.46463(8) 0.18265(9) 0.91080(9)
C2 C 0.58565(15) 0.09766(13) 0.90234(13)
C3 C 0.39263(11) 0.18517(13) 0.87171(12)
H1 H 0.35040 0.22070 0.88280
H2? H 0.62210 0.09950 0.85720
H3? H 0.58290 0.04340 0.92270
H4? H 0.60490 0.13310 0.94410
N1S N 0.46463(8) 0.08920(9) 0.81735(9)
C3S C 0.39263(11) 0.12829(13) 0.81483(12)
H1S H 0.35040 0.11720 0.77930
C1B C 0.4953(3) 0.12374(8) 1.12374(8)
N1B N 0.53537(8) 0.18265(9) 1.08920(9)
C2B C 0.41435(15) 0.09766(13) 1.09766(13)
C3B C 0.60737(11) 0.18517(13) 1.12829(12)
H1B H 0.64960 0.22070 1.11720
N1R N 0.53537(8) 0.08920(9) 1.18265(9)
C3R C 0.60737(11) 0.12829(13) 1.18517(12)
H1R H 0.64960 0.11720 1.22070
Zn1P Zn 0.50000 0.00000 1.25000
Zn1Q Zn 0.50000 0.00000 0.75000
N1SA N 0.41080(8) 0.31735(9) 1.03537(9)
N1UA N 0.58920(8) 0.31735(9) 0.96463(9)
#END
